************************************************************************
file with basedata            : mm59_.bas
initial value random generator: 1223479006
************************************************************************
projects                      :  1
jobs (incl. supersource/sink ):  12
horizon                       :  73
RESOURCES
  - renewable                 :  2   R
  - nonrenewable              :  2   N
  - doubly constrained        :  0   D
************************************************************************
PROJECT INFORMATION:
pronr.  #jobs rel.date duedate tardcost  MPM-Time
    1     10      0       14        5       14
************************************************************************
PRECEDENCE RELATIONS:
jobnr.    #modes  #successors   successors
   0        1          3           1   2   3
   1        3          1           4
   2        3          2           4   5
   3        3          1           7
   4        3          3           8   9  10
   5        3          2           6   8
   6        3          1          10
   7        3          2           9  10
   8        3          1          11
   9        3          1          11
  10        3          1          11
  11        1          0        
************************************************************************
REQUESTS/DURATIONS:
jobnr. mode duration  R 1  R 2  R 3  R 4  E(W 1)  E(W 2)  E(W 3)
------------------------------------------------------------------------
  0      1     0       0    0    0    0     0       0       0
  1      1     1       9    8    0    8    17       0       8
  2      1     5       6    9    4    0    75      20       0
  3      1     1       8    4    6    0    12       6       0
  4      1     1       8    5   10    0    13      10       0
  5      1     1       2    6    4    0     8       4       0
  6      1     6       8    9    3    0    102      18       0
  7      1     1       7    9    9    0    16       9       0
  8      1     2       7    5    0    8    24       0      16
  9      1     2       9    4    0    4    26       0       8
 10      1     2       4    7    0   10    22       0      20
 11      1     0       0    0    0    0     0       0       0
************************************************************************
RESOURCEAVAILABILITIES:
  R 1  R 2  R 3
   45   38   37
************************************************************************
RESOURCE LIMITS:
jobnr.  l(R 1)  u(R 1)  l(R 2)  u(R 2)  l(R 3)  u(R 3)
------------------------------------------------------------------------
  0        0       0       0       0       0       0
  1        9      17       0       0       4       8
  2        8      15       2       4       0       0
  3        6      12       3       6       0       0
  4        7      13       5      10       0       0
  5        4       8       2       4       0       0
  6        9      17       2       3       0       0
  7        9      16       5       9       0       0
  8        7      12       0       0       4       8
  9        7      13       0       0       2       4
 10        6      11       0       0       5      10
 11        0       0       0       0       0       0
************************************************************************
SCENARIOS:
------------------------------------------------------------------------
RESOURCE k = 1
s = 1: (0, 14, 89, 20, 11, 9, 73, 27, 15, 28, 26, 0)
s = 2: (0, 22, 54, 12, 11, 14, 62, 24, 24, 26, 20, 0)
s = 3: (0, 22, 82, 19, 14, 8, 70, 17, 17, 36, 15, 0)
s = 4: (0, 14, 48, 9, 12, 7, 113, 24, 33, 31, 18, 0)
s = 5: (0, 26, 45, 10, 12, 13, 92, 23, 23, 20, 25, 0)
s = 6: (0, 23, 60, 13, 9, 9, 139, 14, 19, 29, 23, 0)
s = 7: (0, 21, 60, 18, 9, 8, 106, 19, 24, 26, 17, 0)
s = 8: (0, 16, 60, 11, 13, 13, 88, 15, 24, 18, 32, 0)
s = 9: (0, 20, 123, 15, 15, 11, 130, 9, 27, 26, 16, 0)
s = 10: (0, 20, 50, 14, 13, 9, 63, 13, 29, 15, 23, 0)
s = 11: (0, 30, 116, 15, 10, 7, 104, 23, 22, 35, 23, 0)
s = 12: (0, 22, 62, 18, 18, 7, 125, 18, 37, 34, 20, 0)
s = 13: (0, 20, 82, 11, 12, 5, 85, 18, 35, 27, 20, 0)
s = 14: (0, 30, 47, 10, 21, 7, 93, 10, 24, 27, 21, 0)
s = 15: (0, 21, 58, 19, 13, 6, 108, 14, 39, 24, 24, 0)
s = 16: (0, 14, 63, 15, 9, 7, 100, 16, 17, 15, 20, 0)
s = 17: (0, 24, 67, 10, 12, 11, 71, 26, 24, 33, 24, 0)
s = 18: (0, 11, 83, 8, 15, 14, 168, 22, 16, 25, 22, 0)
s = 19: (0, 16, 82, 8, 16, 6, 140, 15, 24, 14, 14, 0)
s = 20: (0, 18, 55, 14, 11, 9, 71, 11, 31, 32, 20, 0)
s = 21: (0, 11, 41, 22, 11, 5, 116, 21, 24, 18, 19, 0)
s = 22: (0, 25, 74, 13, 12, 7, 127, 26, 35, 26, 19, 0)
s = 23: (0, 12, 42, 15, 15, 11, 109, 17, 21, 30, 18, 0)
s = 24: (0, 22, 68, 12, 18, 7, 140, 24, 15, 27, 39, 0)
s = 25: (0, 19, 97, 15, 13, 10, 122, 15, 14, 21, 28, 0)
s = 26: (0, 19, 89, 14, 16, 10, 119, 15, 31, 16, 27, 0)
s = 27: (0, 14, 77, 10, 8, 7, 69, 15, 25, 29, 25, 0)
s = 28: (0, 16, 58, 10, 10, 6, 110, 12, 31, 25, 17, 0)
s = 29: (0, 12, 60, 19, 10, 6, 80, 13, 20, 18, 28, 0)
s = 30: (0, 11, 72, 13, 10, 9, 129, 28, 19, 22, 38, 0)
s = 31: (0, 20, 63, 11, 9, 8, 91, 17, 30, 29, 18, 0)
s = 32: (0, 12, 66, 13, 19, 8, 88, 18, 15, 24, 28, 0)
s = 33: (0, 18, 70, 11, 15, 13, 89, 9, 28, 36, 23, 0)
s = 34: (0, 15, 41, 17, 16, 8, 113, 21, 27, 37, 21, 0)
s = 35: (0, 17, 74, 23, 9, 6, 77, 15, 32, 18, 26, 0)
s = 36: (0, 26, 74, 8, 17, 6, 121, 12, 20, 18, 29, 0)
s = 37: (0, 12, 102, 9, 11, 11, 118, 14, 17, 16, 15, 0)
s = 38: (0, 13, 86, 15, 10, 11, 128, 15, 25, 20, 14, 0)
s = 39: (0, 11, 49, 10, 18, 11, 183, 18, 19, 22, 20, 0)
s = 40: (0, 14, 101, 8, 15, 6, 128, 13, 20, 20, 19, 0)
s = 41: (0, 14, 59, 9, 12, 7, 119, 19, 19, 28, 20, 0)
s = 42: (0, 15, 117, 19, 10, 6, 113, 16, 18, 21, 16, 0)
s = 43: (0, 21, 58, 20, 9, 6, 93, 16, 27, 25, 16, 0)
s = 44: (0, 20, 72, 12, 17, 8, 80, 22, 17, 49, 16, 0)
s = 45: (0, 15, 81, 11, 15, 6, 129, 11, 21, 17, 27, 0)
s = 46: (0, 15, 55, 15, 20, 7, 123, 20, 15, 22, 29, 0)
s = 47: (0, 26, 67, 16, 11, 14, 81, 19, 32, 24, 24, 0)
s = 48: (0, 13, 80, 14, 8, 10, 157, 10, 25, 27, 31, 0)
s = 49: (0, 18, 56, 14, 16, 11, 99, 15, 29, 40, 21, 0)
s = 50: (0, 13, 52, 8, 13, 11, 113, 13, 17, 33, 14, 0)
s = 51: (0, 13, 61, 15, 9, 11, 104, 16, 44, 20, 24, 0)
s = 52: (0, 14, 63, 13, 19, 6, 73, 19, 17, 22, 17, 0)
s = 53: (0, 11, 90, 14, 11, 8, 144, 17, 19, 17, 18, 0)
s = 54: (0, 13, 59, 16, 13, 9, 105, 10, 31, 17, 21, 0)
s = 55: (0, 18, 54, 15, 14, 9, 73, 22, 22, 15, 31, 0)
s = 56: (0, 19, 63, 8, 12, 7, 74, 15, 28, 36, 19, 0)
s = 57: (0, 22, 77, 8, 9, 7, 152, 18, 31, 34, 21, 0)
s = 58: (0, 13, 45, 9, 21, 6, 127, 15, 17, 17, 20, 0)
s = 59: (0, 15, 58, 11, 13, 7, 69, 9, 40, 23, 42, 0)
s = 60: (0, 11, 70, 19, 16, 10, 117, 16, 22, 26, 30, 0)
s = 61: (0, 11, 63, 16, 10, 7, 64, 10, 15, 32, 21, 0)
s = 62: (0, 15, 77, 12, 11, 5, 85, 22, 14, 20, 23, 0)
s = 63: (0, 18, 62, 15, 21, 7, 62, 15, 35, 23, 17, 0)
s = 64: (0, 19, 78, 8, 8, 10, 118, 11, 22, 24, 19, 0)
s = 65: (0, 16, 73, 13, 11, 15, 79, 13, 20, 15, 19, 0)
s = 66: (0, 22, 65, 15, 9, 9, 114, 21, 16, 24, 41, 0)
s = 67: (0, 19, 53, 15, 16, 10, 67, 17, 28, 19, 20, 0)
s = 68: (0, 20, 85, 11, 16, 11, 82, 16, 19, 20, 32, 0)
s = 69: (0, 11, 103, 16, 10, 6, 126, 17, 16, 22, 36, 0)
s = 70: (0, 15, 58, 10, 9, 6, 87, 23, 30, 22, 15, 0)
s = 71: (0, 14, 77, 12, 17, 5, 67, 21, 26, 16, 25, 0)
s = 72: (0, 25, 81, 13, 8, 12, 64, 14, 24, 38, 17, 0)
s = 73: (0, 20, 92, 18, 11, 8, 76, 13, 35, 26, 22, 0)
s = 74: (0, 15, 94, 14, 9, 8, 65, 20, 14, 30, 14, 0)
s = 75: (0, 13, 87, 17, 10, 11, 124, 17, 23, 17, 28, 0)
s = 76: (0, 25, 82, 18, 19, 11, 87, 23, 32, 23, 23, 0)
s = 77: (0, 18, 62, 20, 10, 8, 60, 19, 30, 27, 26, 0)
s = 78: (0, 21, 101, 11, 12, 8, 190, 17, 19, 26, 23, 0)
s = 79: (0, 16, 85, 19, 14, 10, 69, 11, 28, 36, 21, 0)
s = 80: (0, 13, 47, 10, 8, 11, 106, 16, 28, 23, 21, 0)
s = 81: (0, 14, 46, 10, 13, 10, 93, 17, 24, 34, 16, 0)
s = 82: (0, 13, 85, 18, 11, 5, 99, 17, 19, 16, 30, 0)
s = 83: (0, 16, 116, 11, 13, 8, 81, 14, 19, 22, 20, 0)
s = 84: (0, 14, 52, 10, 12, 11, 70, 16, 31, 35, 19, 0)
s = 85: (0, 14, 85, 9, 13, 8, 163, 13, 31, 20, 26, 0)
s = 86: (0, 16, 55, 8, 10, 8, 117, 18, 18, 32, 23, 0)
s = 87: (0, 14, 97, 9, 15, 12, 78, 24, 26, 22, 30, 0)
s = 88: (0, 20, 76, 13, 16, 6, 79, 19, 33, 33, 19, 0)
s = 89: (0, 17, 70, 10, 15, 10, 87, 13, 33, 20, 29, 0)
s = 90: (0, 14, 73, 13, 14, 8, 82, 12, 37, 36, 25, 0)
s = 91: (0, 11, 48, 13, 15, 9, 133, 22, 28, 30, 24, 0)
s = 92: (0, 19, 66, 8, 9, 8, 117, 20, 22, 26, 28, 0)
s = 93: (0, 13, 76, 15, 17, 7, 82, 16, 20, 28, 17, 0)
s = 94: (0, 18, 106, 13, 11, 7, 100, 17, 26, 23, 22, 0)
s = 95: (0, 16, 65, 12, 22, 8, 110, 26, 16, 27, 31, 0)
s = 96: (0, 14, 44, 17, 15, 8, 70, 9, 24, 26, 27, 0)
s = 97: (0, 15, 139, 12, 9, 7, 87, 19, 17, 22, 26, 0)
s = 98: (0, 15, 61, 10, 17, 8, 71, 16, 22, 21, 19, 0)
s = 99: (0, 17, 79, 13, 8, 6, 106, 12, 28, 28, 18, 0)
s = 100: (0, 14, 66, 8, 11, 6, 123, 10, 30, 36, 29, 0)
s = 101: (0, 19, 79, 13, 20, 7, 126, 18, 24, 33, 21, 0)
s = 102: (0, 19, 67, 12, 17, 10, 58, 22, 20, 28, 17, 0)
s = 103: (0, 12, 114, 17, 14, 7, 109, 16, 27, 15, 30, 0)
s = 104: (0, 28, 94, 10, 10, 5, 55, 20, 26, 36, 20, 0)
s = 105: (0, 16, 61, 8, 9, 9, 108, 13, 35, 25, 17, 0)
s = 106: (0, 13, 67, 16, 17, 5, 83, 15, 22, 18, 21, 0)
s = 107: (0, 21, 74, 12, 13, 12, 102, 20, 18, 21, 37, 0)
s = 108: (0, 10, 106, 15, 17, 6, 67, 15, 29, 23, 30, 0)
s = 109: (0, 13, 48, 17, 11, 6, 89, 21, 19, 27, 31, 0)
s = 110: (0, 19, 61, 14, 10, 8, 118, 10, 17, 16, 19, 0)
s = 111: (0, 14, 74, 14, 18, 13, 125, 16, 35, 24, 17, 0)
s = 112: (0, 15, 102, 15, 9, 6, 119, 16, 22, 34, 31, 0)
s = 113: (0, 15, 106, 9, 8, 11, 65, 25, 22, 26, 19, 0)
s = 114: (0, 13, 89, 15, 11, 7, 61, 18, 22, 32, 25, 0)
s = 115: (0, 20, 96, 10, 21, 8, 65, 12, 18, 21, 21, 0)
s = 116: (0, 18, 58, 14, 12, 10, 114, 10, 27, 17, 18, 0)
s = 117: (0, 10, 97, 8, 10, 8, 126, 12, 20, 27, 31, 0)
s = 118: (0, 18, 63, 15, 8, 9, 94, 25, 15, 21, 36, 0)
s = 119: (0, 14, 62, 19, 15, 10, 66, 11, 19, 20, 19, 0)
s = 120: (0, 15, 89, 7, 11, 11, 127, 24, 19, 33, 23, 0)
s = 121: (0, 16, 71, 10, 12, 9, 106, 14, 23, 32, 34, 0)
s = 122: (0, 24, 65, 10, 12, 6, 140, 17, 34, 16, 13, 0)
s = 123: (0, 19, 106, 7, 10, 8, 66, 22, 24, 20, 26, 0)
s = 124: (0, 23, 63, 15, 10, 5, 100, 20, 26, 18, 28, 0)
s = 125: (0, 15, 75, 15, 14, 10, 84, 22, 19, 31, 28, 0)
s = 126: (0, 18, 47, 13, 11, 11, 96, 20, 24, 29, 20, 0)
s = 127: (0, 14, 75, 9, 13, 8, 124, 19, 17, 31, 24, 0)
s = 128: (0, 15, 60, 12, 11, 8, 125, 21, 30, 37, 34, 0)
s = 129: (0, 16, 123, 14, 12, 11, 71, 18, 21, 42, 27, 0)
s = 130: (0, 16, 57, 12, 17, 11, 111, 14, 27, 22, 21, 0)
s = 131: (0, 15, 78, 15, 14, 9, 64, 12, 20, 24, 18, 0)
s = 132: (0, 15, 76, 15, 15, 6, 101, 17, 15, 23, 26, 0)
s = 133: (0, 19, 79, 12, 16, 7, 157, 19, 33, 33, 32, 0)
s = 134: (0, 15, 114, 12, 18, 9, 148, 18, 22, 25, 20, 0)
s = 135: (0, 15, 92, 18, 17, 9, 112, 14, 22, 28, 13, 0)
s = 136: (0, 12, 74, 13, 12, 7, 89, 16, 20, 18, 13, 0)
s = 137: (0, 22, 73, 18, 9, 11, 83, 25, 31, 16, 26, 0)
s = 138: (0, 18, 105, 15, 12, 10, 66, 13, 14, 17, 27, 0)
s = 139: (0, 11, 48, 12, 21, 7, 78, 20, 26, 26, 21, 0)
s = 140: (0, 23, 77, 20, 12, 10, 70, 17, 17, 34, 14, 0)
s = 141: (0, 16, 65, 17, 15, 7, 131, 20, 15, 36, 24, 0)
s = 142: (0, 20, 47, 15, 14, 7, 80, 16, 22, 19, 19, 0)
s = 143: (0, 18, 59, 13, 13, 5, 116, 25, 25, 18, 34, 0)
s = 144: (0, 20, 121, 22, 16, 8, 104, 16, 30, 20, 29, 0)
s = 145: (0, 10, 57, 14, 14, 10, 108, 15, 32, 42, 24, 0)
s = 146: (0, 14, 78, 12, 15, 9, 89, 17, 26, 48, 18, 0)
s = 147: (0, 11, 65, 14, 13, 13, 113, 12, 13, 27, 17, 0)
s = 148: (0, 19, 46, 16, 9, 10, 99, 14, 21, 23, 32, 0)
s = 149: (0, 12, 83, 9, 15, 11, 126, 18, 16, 22, 19, 0)
s = 150: (0, 13, 63, 17, 9, 9, 151, 18, 24, 30, 21, 0)
s = 151: (0, 16, 87, 11, 16, 11, 151, 19, 20, 30, 19, 0)
s = 152: (0, 18, 86, 13, 9, 7, 141, 11, 24, 34, 25, 0)
s = 153: (0, 16, 56, 11, 25, 10, 70, 18, 25, 28, 23, 0)
s = 154: (0, 17, 75, 14, 9, 7, 111, 17, 23, 16, 14, 0)
s = 155: (0, 20, 46, 14, 13, 12, 75, 13, 19, 31, 14, 0)
s = 156: (0, 17, 50, 8, 11, 8, 107, 17, 31, 22, 25, 0)
s = 157: (0, 16, 42, 15, 12, 9, 111, 16, 16, 22, 15, 0)
s = 158: (0, 23, 56, 12, 9, 7, 90, 19, 17, 19, 15, 0)
s = 159: (0, 15, 80, 12, 18, 5, 83, 13, 17, 21, 22, 0)
s = 160: (0, 12, 96, 13, 21, 6, 90, 12, 18, 19, 22, 0)
s = 161: (0, 29, 42, 13, 13, 11, 59, 23, 22, 38, 15, 0)
s = 162: (0, 15, 46, 12, 13, 8, 82, 21, 24, 20, 23, 0)
s = 163: (0, 15, 90, 19, 12, 7, 71, 16, 16, 21, 26, 0)
s = 164: (0, 20, 60, 16, 13, 14, 172, 14, 31, 27, 25, 0)
s = 165: (0, 13, 53, 15, 15, 10, 83, 14, 29, 22, 21, 0)
s = 166: (0, 17, 60, 13, 23, 12, 64, 29, 17, 27, 22, 0)
s = 167: (0, 23, 46, 12, 13, 12, 112, 18, 19, 18, 17, 0)
s = 168: (0, 14, 73, 14, 8, 10, 105, 21, 24, 18, 26, 0)
s = 169: (0, 16, 87, 12, 8, 9, 62, 21, 21, 30, 20, 0)
s = 170: (0, 27, 97, 17, 11, 14, 133, 15, 37, 31, 25, 0)
s = 171: (0, 11, 45, 14, 10, 9, 161, 24, 16, 33, 19, 0)
s = 172: (0, 17, 78, 13, 19, 13, 85, 12, 36, 36, 21, 0)
s = 173: (0, 20, 72, 8, 14, 11, 139, 18, 39, 24, 31, 0)
s = 174: (0, 19, 66, 10, 16, 7, 145, 11, 21, 20, 33, 0)
s = 175: (0, 23, 102, 17, 8, 9, 73, 20, 26, 26, 29, 0)
s = 176: (0, 21, 68, 12, 16, 10, 112, 10, 14, 23, 16, 0)
s = 177: (0, 20, 72, 22, 18, 8, 97, 9, 29, 22, 17, 0)
s = 178: (0, 15, 50, 9, 14, 8, 74, 18, 29, 20, 24, 0)
s = 179: (0, 29, 93, 18, 22, 5, 105, 23, 31, 35, 27, 0)
s = 180: (0, 16, 91, 20, 9, 5, 127, 15, 19, 22, 20, 0)
s = 181: (0, 11, 63, 13, 9, 8, 56, 18, 39, 44, 12, 0)
s = 182: (0, 21, 75, 7, 13, 7, 105, 15, 23, 28, 17, 0)
s = 183: (0, 22, 99, 11, 14, 13, 141, 20, 22, 26, 20, 0)
s = 184: (0, 24, 97, 11, 18, 9, 81, 20, 30, 32, 33, 0)
s = 185: (0, 29, 62, 11, 10, 11, 151, 12, 28, 25, 16, 0)
s = 186: (0, 13, 72, 13, 14, 8, 148, 18, 19, 24, 15, 0)
s = 187: (0, 10, 64, 17, 11, 11, 102, 10, 20, 37, 20, 0)
s = 188: (0, 10, 47, 15, 10, 6, 114, 16, 18, 30, 18, 0)
s = 189: (0, 17, 100, 14, 15, 8, 80, 11, 33, 36, 20, 0)
s = 190: (0, 13, 39, 23, 13, 6, 156, 10, 22, 43, 23, 0)
s = 191: (0, 19, 99, 9, 9, 7, 72, 18, 24, 28, 27, 0)
s = 192: (0, 10, 79, 13, 13, 10, 102, 26, 34, 19, 33, 0)
s = 193: (0, 14, 73, 13, 12, 12, 134, 13, 26, 34, 21, 0)
s = 194: (0, 18, 90, 12, 19, 11, 103, 12, 18, 24, 21, 0)
s = 195: (0, 16, 60, 13, 14, 7, 84, 13, 21, 20, 17, 0)
s = 196: (0, 17, 76, 11, 20, 8, 144, 18, 31, 21, 26, 0)
s = 197: (0, 23, 75, 14, 12, 12, 71, 11, 23, 21, 21, 0)
s = 198: (0, 16, 60, 13, 9, 10, 163, 16, 15, 23, 31, 0)
s = 199: (0, 18, 128, 12, 9, 9, 59, 19, 33, 30, 24, 0)
s = 200: (0, 11, 88, 13, 13, 7, 168, 10, 27, 36, 19, 0)
------------------------------------------------------------------------
RESOURCE k = 2
s = 1: (0, 0, 24, 10, 9, 5, 13, 15, 0, 0, 0, 0)
s = 2: (0, 0, 15, 6, 9, 7, 11, 14, 0, 0, 0, 0)
s = 3: (0, 0, 22, 10, 11, 4, 13, 10, 0, 0, 0, 0)
s = 4: (0, 0, 13, 5, 9, 4, 20, 14, 0, 0, 0, 0)
s = 5: (0, 0, 12, 5, 9, 7, 17, 13, 0, 0, 0, 0)
s = 6: (0, 0, 16, 7, 7, 5, 25, 8, 0, 0, 0, 0)
s = 7: (0, 0, 16, 9, 7, 4, 19, 11, 0, 0, 0, 0)
s = 8: (0, 0, 16, 6, 10, 7, 16, 9, 0, 0, 0, 0)
s = 9: (0, 0, 33, 8, 12, 6, 23, 5, 0, 0, 0, 0)
s = 10: (0, 0, 14, 7, 10, 5, 11, 8, 0, 0, 0, 0)
s = 11: (0, 0, 31, 8, 8, 4, 19, 13, 0, 0, 0, 0)
s = 12: (0, 0, 17, 9, 14, 4, 22, 10, 0, 0, 0, 0)
s = 13: (0, 0, 22, 6, 10, 3, 15, 11, 0, 0, 0, 0)
s = 14: (0, 0, 13, 5, 16, 4, 17, 6, 0, 0, 0, 0)
s = 15: (0, 0, 16, 10, 10, 3, 19, 8, 0, 0, 0, 0)
s = 16: (0, 0, 17, 8, 7, 4, 18, 9, 0, 0, 0, 0)
s = 17: (0, 0, 18, 5, 10, 6, 13, 15, 0, 0, 0, 0)
s = 18: (0, 0, 22, 4, 12, 7, 30, 13, 0, 0, 0, 0)
s = 19: (0, 0, 22, 4, 12, 3, 25, 9, 0, 0, 0, 0)
s = 20: (0, 0, 15, 7, 9, 5, 13, 6, 0, 0, 0, 0)
s = 21: (0, 0, 11, 11, 8, 3, 21, 12, 0, 0, 0, 0)
s = 22: (0, 0, 20, 7, 10, 4, 23, 15, 0, 0, 0, 0)
s = 23: (0, 0, 11, 8, 12, 6, 20, 10, 0, 0, 0, 0)
s = 24: (0, 0, 18, 6, 14, 4, 25, 14, 0, 0, 0, 0)
s = 25: (0, 0, 26, 8, 10, 5, 22, 9, 0, 0, 0, 0)
s = 26: (0, 0, 24, 7, 12, 5, 21, 9, 0, 0, 0, 0)
s = 27: (0, 0, 21, 5, 6, 4, 13, 9, 0, 0, 0, 0)
s = 28: (0, 0, 16, 5, 8, 3, 20, 7, 0, 0, 0, 0)
s = 29: (0, 0, 16, 10, 8, 3, 14, 7, 0, 0, 0, 0)
s = 30: (0, 0, 19, 7, 8, 5, 23, 16, 0, 0, 0, 0)
s = 31: (0, 0, 17, 6, 7, 4, 16, 10, 0, 0, 0, 0)
s = 32: (0, 0, 18, 7, 15, 4, 16, 11, 0, 0, 0, 0)
s = 33: (0, 0, 19, 6, 12, 7, 16, 6, 0, 0, 0, 0)
s = 34: (0, 0, 11, 9, 12, 4, 20, 12, 0, 0, 0, 0)
s = 35: (0, 0, 20, 12, 7, 3, 14, 9, 0, 0, 0, 0)
s = 36: (0, 0, 20, 4, 13, 3, 22, 7, 0, 0, 0, 0)
s = 37: (0, 0, 28, 5, 8, 6, 21, 8, 0, 0, 0, 0)
s = 38: (0, 0, 23, 8, 8, 6, 23, 8, 0, 0, 0, 0)
s = 39: (0, 0, 13, 5, 14, 6, 33, 10, 0, 0, 0, 0)
s = 40: (0, 0, 27, 4, 12, 3, 23, 8, 0, 0, 0, 0)
s = 41: (0, 0, 16, 5, 9, 4, 21, 11, 0, 0, 0, 0)
s = 42: (0, 0, 32, 10, 8, 3, 20, 9, 0, 0, 0, 0)
s = 43: (0, 0, 16, 10, 7, 3, 17, 9, 0, 0, 0, 0)
s = 44: (0, 0, 20, 6, 13, 4, 15, 13, 0, 0, 0, 0)
s = 45: (0, 0, 22, 6, 12, 3, 23, 6, 0, 0, 0, 0)
s = 46: (0, 0, 15, 8, 15, 4, 22, 12, 0, 0, 0, 0)
s = 47: (0, 0, 18, 8, 9, 7, 15, 11, 0, 0, 0, 0)
s = 48: (0, 0, 22, 7, 6, 5, 28, 6, 0, 0, 0, 0)
s = 49: (0, 0, 15, 7, 12, 6, 18, 9, 0, 0, 0, 0)
s = 50: (0, 0, 14, 4, 10, 6, 20, 8, 0, 0, 0, 0)
s = 51: (0, 0, 17, 8, 7, 6, 19, 9, 0, 0, 0, 0)
s = 52: (0, 0, 17, 7, 14, 3, 13, 11, 0, 0, 0, 0)
s = 53: (0, 0, 24, 7, 9, 4, 26, 10, 0, 0, 0, 0)
s = 54: (0, 0, 16, 8, 10, 5, 19, 6, 0, 0, 0, 0)
s = 55: (0, 0, 15, 8, 11, 5, 13, 13, 0, 0, 0, 0)
s = 56: (0, 0, 17, 4, 10, 4, 13, 9, 0, 0, 0, 0)
s = 57: (0, 0, 21, 4, 7, 4, 27, 10, 0, 0, 0, 0)
s = 58: (0, 0, 12, 5, 16, 3, 23, 9, 0, 0, 0, 0)
s = 59: (0, 0, 16, 6, 10, 4, 13, 5, 0, 0, 0, 0)
s = 60: (0, 0, 19, 10, 13, 5, 21, 9, 0, 0, 0, 0)
s = 61: (0, 0, 17, 8, 8, 4, 12, 6, 0, 0, 0, 0)
s = 62: (0, 0, 21, 6, 9, 3, 15, 13, 0, 0, 0, 0)
s = 63: (0, 0, 17, 8, 16, 4, 11, 9, 0, 0, 0, 0)
s = 64: (0, 0, 21, 4, 6, 5, 21, 6, 0, 0, 0, 0)
s = 65: (0, 0, 20, 7, 8, 8, 14, 8, 0, 0, 0, 0)
s = 66: (0, 0, 18, 8, 7, 5, 21, 12, 0, 0, 0, 0)
s = 67: (0, 0, 15, 8, 12, 5, 12, 10, 0, 0, 0, 0)
s = 68: (0, 0, 23, 6, 12, 6, 15, 9, 0, 0, 0, 0)
s = 69: (0, 0, 28, 8, 8, 3, 23, 10, 0, 0, 0, 0)
s = 70: (0, 0, 16, 5, 7, 3, 16, 13, 0, 0, 0, 0)
s = 71: (0, 0, 21, 6, 13, 3, 12, 12, 0, 0, 0, 0)
s = 72: (0, 0, 22, 7, 6, 6, 12, 8, 0, 0, 0, 0)
s = 73: (0, 0, 25, 9, 9, 4, 14, 7, 0, 0, 0, 0)
s = 74: (0, 0, 25, 7, 7, 4, 12, 11, 0, 0, 0, 0)
s = 75: (0, 0, 24, 9, 8, 6, 22, 10, 0, 0, 0, 0)
s = 76: (0, 0, 22, 9, 14, 6, 16, 13, 0, 0, 0, 0)
s = 77: (0, 0, 17, 10, 8, 4, 11, 11, 0, 0, 0, 0)
s = 78: (0, 0, 27, 6, 10, 4, 34, 10, 0, 0, 0, 0)
s = 79: (0, 0, 23, 10, 11, 5, 13, 6, 0, 0, 0, 0)
s = 80: (0, 0, 13, 5, 7, 6, 19, 9, 0, 0, 0, 0)
s = 81: (0, 0, 13, 5, 10, 5, 17, 10, 0, 0, 0, 0)
s = 82: (0, 0, 23, 9, 8, 3, 18, 10, 0, 0, 0, 0)
s = 83: (0, 0, 31, 6, 10, 4, 15, 8, 0, 0, 0, 0)
s = 84: (0, 0, 14, 5, 9, 6, 13, 9, 0, 0, 0, 0)
s = 85: (0, 0, 23, 5, 10, 4, 29, 8, 0, 0, 0, 0)
s = 86: (0, 0, 15, 4, 8, 4, 21, 10, 0, 0, 0, 0)
s = 87: (0, 0, 26, 5, 12, 6, 14, 14, 0, 0, 0, 0)
s = 88: (0, 0, 21, 7, 12, 3, 14, 11, 0, 0, 0, 0)
s = 89: (0, 0, 19, 5, 12, 5, 16, 8, 0, 0, 0, 0)
s = 90: (0, 0, 20, 7, 11, 4, 15, 7, 0, 0, 0, 0)
s = 91: (0, 0, 13, 7, 12, 5, 24, 13, 0, 0, 0, 0)
s = 92: (0, 0, 18, 4, 7, 4, 21, 12, 0, 0, 0, 0)
s = 93: (0, 0, 21, 8, 13, 4, 15, 9, 0, 0, 0, 0)
s = 94: (0, 0, 29, 7, 8, 4, 18, 10, 0, 0, 0, 0)
s = 95: (0, 0, 18, 6, 17, 4, 20, 15, 0, 0, 0, 0)
s = 96: (0, 0, 12, 9, 12, 4, 13, 5, 0, 0, 0, 0)
s = 97: (0, 0, 37, 6, 7, 4, 16, 11, 0, 0, 0, 0)
s = 98: (0, 0, 17, 5, 13, 4, 13, 9, 0, 0, 0, 0)
s = 99: (0, 0, 21, 7, 6, 3, 19, 7, 0, 0, 0, 0)
s = 100: (0, 0, 18, 4, 9, 3, 22, 6, 0, 0, 0, 0)
s = 101: (0, 0, 21, 7, 15, 4, 23, 11, 0, 0, 0, 0)
s = 102: (0, 0, 18, 6, 13, 5, 11, 13, 0, 0, 0, 0)
s = 103: (0, 0, 31, 9, 11, 4, 20, 9, 0, 0, 0, 0)
s = 104: (0, 0, 25, 5, 8, 3, 10, 12, 0, 0, 0, 0)
s = 105: (0, 0, 17, 4, 7, 5, 19, 8, 0, 0, 0, 0)
s = 106: (0, 0, 18, 8, 13, 3, 15, 9, 0, 0, 0, 0)
s = 107: (0, 0, 20, 6, 10, 6, 18, 11, 0, 0, 0, 0)
s = 108: (0, 0, 29, 8, 13, 3, 12, 9, 0, 0, 0, 0)
s = 109: (0, 0, 13, 9, 9, 3, 16, 12, 0, 0, 0, 0)
s = 110: (0, 0, 17, 7, 8, 4, 21, 6, 0, 0, 0, 0)
s = 111: (0, 0, 20, 7, 14, 7, 22, 9, 0, 0, 0, 0)
s = 112: (0, 0, 28, 8, 7, 3, 21, 9, 0, 0, 0, 0)
s = 113: (0, 0, 29, 5, 6, 6, 12, 14, 0, 0, 0, 0)
s = 114: (0, 0, 24, 8, 8, 4, 11, 10, 0, 0, 0, 0)
s = 115: (0, 0, 26, 5, 17, 4, 12, 7, 0, 0, 0, 0)
s = 116: (0, 0, 16, 7, 9, 5, 20, 6, 0, 0, 0, 0)
s = 117: (0, 0, 26, 4, 8, 4, 23, 7, 0, 0, 0, 0)
s = 118: (0, 0, 17, 8, 6, 5, 17, 14, 0, 0, 0, 0)
s = 119: (0, 0, 17, 10, 12, 5, 12, 6, 0, 0, 0, 0)
s = 120: (0, 0, 24, 4, 9, 6, 23, 14, 0, 0, 0, 0)
s = 121: (0, 0, 19, 5, 9, 5, 19, 8, 0, 0, 0, 0)
s = 122: (0, 0, 18, 5, 9, 3, 25, 10, 0, 0, 0, 0)
s = 123: (0, 0, 29, 4, 8, 4, 12, 13, 0, 0, 0, 0)
s = 124: (0, 0, 17, 8, 8, 3, 18, 12, 0, 0, 0, 0)
s = 125: (0, 0, 20, 8, 11, 5, 15, 13, 0, 0, 0, 0)
s = 126: (0, 0, 13, 7, 8, 6, 17, 12, 0, 0, 0, 0)
s = 127: (0, 0, 20, 5, 10, 4, 22, 11, 0, 0, 0, 0)
s = 128: (0, 0, 16, 6, 9, 4, 22, 12, 0, 0, 0, 0)
s = 129: (0, 0, 33, 7, 9, 6, 13, 10, 0, 0, 0, 0)
s = 130: (0, 0, 15, 6, 13, 6, 20, 8, 0, 0, 0, 0)
s = 131: (0, 0, 21, 8, 11, 5, 12, 7, 0, 0, 0, 0)
s = 132: (0, 0, 21, 8, 12, 3, 18, 10, 0, 0, 0, 0)
s = 133: (0, 0, 21, 6, 12, 4, 28, 11, 0, 0, 0, 0)
s = 134: (0, 0, 31, 6, 14, 5, 27, 10, 0, 0, 0, 0)
s = 135: (0, 0, 25, 9, 13, 5, 20, 8, 0, 0, 0, 0)
s = 136: (0, 0, 20, 7, 9, 4, 16, 9, 0, 0, 0, 0)
s = 137: (0, 0, 20, 9, 7, 6, 15, 14, 0, 0, 0, 0)
s = 138: (0, 0, 28, 8, 9, 5, 12, 7, 0, 0, 0, 0)
s = 139: (0, 0, 13, 6, 16, 4, 14, 12, 0, 0, 0, 0)
s = 140: (0, 0, 21, 10, 9, 5, 13, 10, 0, 0, 0, 0)
s = 141: (0, 0, 18, 9, 11, 4, 24, 12, 0, 0, 0, 0)
s = 142: (0, 0, 13, 8, 11, 4, 14, 9, 0, 0, 0, 0)
s = 143: (0, 0, 16, 7, 10, 3, 21, 14, 0, 0, 0, 0)
s = 144: (0, 0, 33, 11, 12, 4, 19, 9, 0, 0, 0, 0)
s = 145: (0, 0, 16, 7, 11, 5, 19, 9, 0, 0, 0, 0)
s = 146: (0, 0, 21, 6, 12, 5, 16, 10, 0, 0, 0, 0)
s = 147: (0, 0, 18, 7, 10, 7, 20, 7, 0, 0, 0, 0)
s = 148: (0, 0, 13, 8, 7, 5, 18, 8, 0, 0, 0, 0)
s = 149: (0, 0, 22, 5, 11, 6, 23, 10, 0, 0, 0, 0)
s = 150: (0, 0, 17, 9, 7, 5, 27, 10, 0, 0, 0, 0)
s = 151: (0, 0, 24, 6, 12, 6, 27, 11, 0, 0, 0, 0)
s = 152: (0, 0, 23, 7, 7, 4, 25, 6, 0, 0, 0, 0)
s = 153: (0, 0, 15, 6, 20, 5, 13, 10, 0, 0, 0, 0)
s = 154: (0, 0, 20, 7, 7, 4, 20, 10, 0, 0, 0, 0)
s = 155: (0, 0, 13, 7, 10, 6, 14, 7, 0, 0, 0, 0)
s = 156: (0, 0, 14, 4, 9, 4, 19, 10, 0, 0, 0, 0)
s = 157: (0, 0, 12, 8, 9, 5, 20, 9, 0, 0, 0, 0)
s = 158: (0, 0, 15, 6, 7, 4, 16, 11, 0, 0, 0, 0)
s = 159: (0, 0, 22, 6, 14, 3, 15, 8, 0, 0, 0, 0)
s = 160: (0, 0, 26, 7, 16, 3, 16, 7, 0, 0, 0, 0)
s = 161: (0, 0, 12, 7, 10, 6, 11, 13, 0, 0, 0, 0)
s = 162: (0, 0, 13, 6, 10, 4, 15, 12, 0, 0, 0, 0)
s = 163: (0, 0, 24, 10, 9, 4, 13, 9, 0, 0, 0, 0)
s = 164: (0, 0, 16, 8, 10, 7, 31, 8, 0, 0, 0, 0)
s = 165: (0, 0, 14, 8, 11, 5, 15, 8, 0, 0, 0, 0)
s = 166: (0, 0, 16, 7, 18, 6, 12, 16, 0, 0, 0, 0)
s = 167: (0, 0, 13, 6, 10, 6, 20, 11, 0, 0, 0, 0)
s = 168: (0, 0, 20, 7, 6, 5, 19, 12, 0, 0, 0, 0)
s = 169: (0, 0, 24, 6, 6, 5, 11, 12, 0, 0, 0, 0)
s = 170: (0, 0, 26, 9, 9, 7, 24, 9, 0, 0, 0, 0)
s = 171: (0, 0, 12, 7, 8, 5, 29, 14, 0, 0, 0, 0)
s = 172: (0, 0, 21, 7, 15, 7, 15, 7, 0, 0, 0, 0)
s = 173: (0, 0, 20, 4, 11, 6, 25, 11, 0, 0, 0, 0)
s = 174: (0, 0, 18, 5, 13, 4, 26, 7, 0, 0, 0, 0)
s = 175: (0, 0, 28, 9, 6, 5, 13, 11, 0, 0, 0, 0)
s = 176: (0, 0, 18, 6, 13, 5, 20, 6, 0, 0, 0, 0)
s = 177: (0, 0, 19, 11, 14, 4, 17, 5, 0, 0, 0, 0)
s = 178: (0, 0, 14, 5, 11, 4, 14, 10, 0, 0, 0, 0)
s = 179: (0, 0, 25, 9, 17, 3, 19, 13, 0, 0, 0, 0)
s = 180: (0, 0, 25, 10, 7, 3, 23, 9, 0, 0, 0, 0)
s = 181: (0, 0, 17, 7, 7, 4, 10, 10, 0, 0, 0, 0)
s = 182: (0, 0, 20, 4, 10, 4, 19, 9, 0, 0, 0, 0)
s = 183: (0, 0, 27, 6, 11, 7, 25, 12, 0, 0, 0, 0)
s = 184: (0, 0, 26, 6, 14, 5, 15, 12, 0, 0, 0, 0)
s = 185: (0, 0, 17, 6, 7, 6, 27, 7, 0, 0, 0, 0)
s = 186: (0, 0, 20, 7, 11, 4, 27, 10, 0, 0, 0, 0)
s = 187: (0, 0, 17, 9, 9, 6, 18, 6, 0, 0, 0, 0)
s = 188: (0, 0, 13, 8, 8, 3, 21, 9, 0, 0, 0, 0)
s = 189: (0, 0, 27, 7, 12, 4, 15, 6, 0, 0, 0, 0)
s = 190: (0, 0, 11, 12, 10, 3, 28, 6, 0, 0, 0, 0)
s = 191: (0, 0, 27, 5, 7, 4, 13, 10, 0, 0, 0, 0)
s = 192: (0, 0, 21, 7, 10, 5, 18, 15, 0, 0, 0, 0)
s = 193: (0, 0, 20, 7, 9, 6, 24, 7, 0, 0, 0, 0)
s = 194: (0, 0, 24, 6, 15, 6, 19, 7, 0, 0, 0, 0)
s = 195: (0, 0, 16, 7, 11, 4, 15, 8, 0, 0, 0, 0)
s = 196: (0, 0, 21, 6, 15, 4, 26, 11, 0, 0, 0, 0)
s = 197: (0, 0, 20, 7, 9, 6, 13, 6, 0, 0, 0, 0)
s = 198: (0, 0, 16, 7, 7, 5, 29, 9, 0, 0, 0, 0)
s = 199: (0, 0, 34, 6, 7, 5, 11, 11, 0, 0, 0, 0)
s = 200: (0, 0, 24, 7, 10, 4, 30, 6, 0, 0, 0, 0)
------------------------------------------------------------------------
RESOURCE k = 3
s = 1: (0, 7, 0, 0, 0, 0, 0, 0, 10, 9, 24, 0)
s = 2: (0, 11, 0, 0, 0, 0, 0, 0, 16, 8, 18, 0)
s = 3: (0, 11, 0, 0, 0, 0, 0, 0, 12, 11, 13, 0)
s = 4: (0, 7, 0, 0, 0, 0, 0, 0, 22, 10, 16, 0)
s = 5: (0, 12, 0, 0, 0, 0, 0, 0, 16, 7, 23, 0)
s = 6: (0, 11, 0, 0, 0, 0, 0, 0, 13, 9, 21, 0)
s = 7: (0, 10, 0, 0, 0, 0, 0, 0, 16, 8, 15, 0)
s = 8: (0, 8, 0, 0, 0, 0, 0, 0, 16, 6, 29, 0)
s = 9: (0, 10, 0, 0, 0, 0, 0, 0, 18, 8, 15, 0)
s = 10: (0, 10, 0, 0, 0, 0, 0, 0, 20, 5, 21, 0)
s = 11: (0, 14, 0, 0, 0, 0, 0, 0, 15, 11, 21, 0)
s = 12: (0, 11, 0, 0, 0, 0, 0, 0, 25, 11, 18, 0)
s = 13: (0, 10, 0, 0, 0, 0, 0, 0, 24, 9, 18, 0)
s = 14: (0, 14, 0, 0, 0, 0, 0, 0, 16, 9, 19, 0)
s = 15: (0, 10, 0, 0, 0, 0, 0, 0, 26, 8, 21, 0)
s = 16: (0, 7, 0, 0, 0, 0, 0, 0, 11, 5, 18, 0)
s = 17: (0, 11, 0, 0, 0, 0, 0, 0, 16, 10, 22, 0)
s = 18: (0, 5, 0, 0, 0, 0, 0, 0, 11, 8, 20, 0)
s = 19: (0, 8, 0, 0, 0, 0, 0, 0, 16, 5, 13, 0)
s = 20: (0, 9, 0, 0, 0, 0, 0, 0, 21, 10, 18, 0)
s = 21: (0, 5, 0, 0, 0, 0, 0, 0, 16, 6, 17, 0)
s = 22: (0, 12, 0, 0, 0, 0, 0, 0, 24, 8, 17, 0)
s = 23: (0, 6, 0, 0, 0, 0, 0, 0, 14, 10, 16, 0)
s = 24: (0, 11, 0, 0, 0, 0, 0, 0, 10, 9, 36, 0)
s = 25: (0, 9, 0, 0, 0, 0, 0, 0, 9, 7, 25, 0)
s = 26: (0, 9, 0, 0, 0, 0, 0, 0, 21, 5, 24, 0)
s = 27: (0, 7, 0, 0, 0, 0, 0, 0, 17, 9, 22, 0)
s = 28: (0, 8, 0, 0, 0, 0, 0, 0, 21, 8, 15, 0)
s = 29: (0, 6, 0, 0, 0, 0, 0, 0, 14, 6, 26, 0)
s = 30: (0, 5, 0, 0, 0, 0, 0, 0, 13, 7, 35, 0)
s = 31: (0, 10, 0, 0, 0, 0, 0, 0, 20, 9, 16, 0)
s = 32: (0, 6, 0, 0, 0, 0, 0, 0, 10, 8, 25, 0)
s = 33: (0, 9, 0, 0, 0, 0, 0, 0, 19, 11, 21, 0)
s = 34: (0, 7, 0, 0, 0, 0, 0, 0, 18, 12, 19, 0)
s = 35: (0, 8, 0, 0, 0, 0, 0, 0, 21, 6, 23, 0)
s = 36: (0, 12, 0, 0, 0, 0, 0, 0, 13, 6, 26, 0)
s = 37: (0, 6, 0, 0, 0, 0, 0, 0, 12, 5, 13, 0)
s = 38: (0, 6, 0, 0, 0, 0, 0, 0, 17, 7, 13, 0)
s = 39: (0, 5, 0, 0, 0, 0, 0, 0, 13, 7, 18, 0)
s = 40: (0, 7, 0, 0, 0, 0, 0, 0, 13, 6, 17, 0)
s = 41: (0, 7, 0, 0, 0, 0, 0, 0, 13, 9, 18, 0)
s = 42: (0, 7, 0, 0, 0, 0, 0, 0, 12, 7, 14, 0)
s = 43: (0, 10, 0, 0, 0, 0, 0, 0, 18, 8, 14, 0)
s = 44: (0, 10, 0, 0, 0, 0, 0, 0, 12, 15, 15, 0)
s = 45: (0, 7, 0, 0, 0, 0, 0, 0, 14, 6, 25, 0)
s = 46: (0, 7, 0, 0, 0, 0, 0, 0, 10, 7, 26, 0)
s = 47: (0, 12, 0, 0, 0, 0, 0, 0, 22, 8, 22, 0)
s = 48: (0, 7, 0, 0, 0, 0, 0, 0, 17, 9, 29, 0)
s = 49: (0, 9, 0, 0, 0, 0, 0, 0, 19, 13, 19, 0)
s = 50: (0, 6, 0, 0, 0, 0, 0, 0, 11, 10, 12, 0)
s = 51: (0, 7, 0, 0, 0, 0, 0, 0, 29, 7, 22, 0)
s = 52: (0, 7, 0, 0, 0, 0, 0, 0, 12, 7, 16, 0)
s = 53: (0, 6, 0, 0, 0, 0, 0, 0, 13, 6, 17, 0)
s = 54: (0, 7, 0, 0, 0, 0, 0, 0, 21, 5, 19, 0)
s = 55: (0, 9, 0, 0, 0, 0, 0, 0, 15, 5, 29, 0)
s = 56: (0, 9, 0, 0, 0, 0, 0, 0, 19, 12, 17, 0)
s = 57: (0, 10, 0, 0, 0, 0, 0, 0, 21, 11, 19, 0)
s = 58: (0, 6, 0, 0, 0, 0, 0, 0, 11, 6, 18, 0)
s = 59: (0, 7, 0, 0, 0, 0, 0, 0, 27, 7, 38, 0)
s = 60: (0, 5, 0, 0, 0, 0, 0, 0, 15, 8, 27, 0)
s = 61: (0, 5, 0, 0, 0, 0, 0, 0, 10, 10, 19, 0)
s = 62: (0, 7, 0, 0, 0, 0, 0, 0, 9, 7, 21, 0)
s = 63: (0, 9, 0, 0, 0, 0, 0, 0, 23, 7, 15, 0)
s = 64: (0, 9, 0, 0, 0, 0, 0, 0, 15, 8, 17, 0)
s = 65: (0, 8, 0, 0, 0, 0, 0, 0, 13, 5, 17, 0)
s = 66: (0, 11, 0, 0, 0, 0, 0, 0, 11, 8, 38, 0)
s = 67: (0, 9, 0, 0, 0, 0, 0, 0, 19, 6, 18, 0)
s = 68: (0, 10, 0, 0, 0, 0, 0, 0, 13, 7, 29, 0)
s = 69: (0, 5, 0, 0, 0, 0, 0, 0, 11, 7, 33, 0)
s = 70: (0, 8, 0, 0, 0, 0, 0, 0, 20, 7, 14, 0)
s = 71: (0, 7, 0, 0, 0, 0, 0, 0, 17, 5, 23, 0)
s = 72: (0, 12, 0, 0, 0, 0, 0, 0, 16, 12, 16, 0)
s = 73: (0, 10, 0, 0, 0, 0, 0, 0, 23, 8, 20, 0)
s = 74: (0, 8, 0, 0, 0, 0, 0, 0, 10, 9, 13, 0)
s = 75: (0, 6, 0, 0, 0, 0, 0, 0, 15, 6, 25, 0)
s = 76: (0, 12, 0, 0, 0, 0, 0, 0, 21, 8, 21, 0)
s = 77: (0, 9, 0, 0, 0, 0, 0, 0, 20, 9, 24, 0)
s = 78: (0, 10, 0, 0, 0, 0, 0, 0, 13, 8, 21, 0)
s = 79: (0, 8, 0, 0, 0, 0, 0, 0, 19, 11, 19, 0)
s = 80: (0, 7, 0, 0, 0, 0, 0, 0, 19, 7, 19, 0)
s = 81: (0, 7, 0, 0, 0, 0, 0, 0, 16, 11, 15, 0)
s = 82: (0, 7, 0, 0, 0, 0, 0, 0, 13, 5, 28, 0)
s = 83: (0, 8, 0, 0, 0, 0, 0, 0, 13, 7, 18, 0)
s = 84: (0, 7, 0, 0, 0, 0, 0, 0, 21, 11, 18, 0)
s = 85: (0, 7, 0, 0, 0, 0, 0, 0, 21, 6, 24, 0)
s = 86: (0, 8, 0, 0, 0, 0, 0, 0, 12, 10, 21, 0)
s = 87: (0, 7, 0, 0, 0, 0, 0, 0, 18, 7, 28, 0)
s = 88: (0, 9, 0, 0, 0, 0, 0, 0, 22, 11, 17, 0)
s = 89: (0, 8, 0, 0, 0, 0, 0, 0, 22, 6, 26, 0)
s = 90: (0, 7, 0, 0, 0, 0, 0, 0, 25, 11, 23, 0)
s = 91: (0, 5, 0, 0, 0, 0, 0, 0, 19, 9, 22, 0)
s = 92: (0, 9, 0, 0, 0, 0, 0, 0, 15, 8, 26, 0)
s = 93: (0, 6, 0, 0, 0, 0, 0, 0, 14, 9, 15, 0)
s = 94: (0, 9, 0, 0, 0, 0, 0, 0, 18, 7, 20, 0)
s = 95: (0, 8, 0, 0, 0, 0, 0, 0, 11, 9, 28, 0)
s = 96: (0, 7, 0, 0, 0, 0, 0, 0, 16, 8, 24, 0)
s = 97: (0, 7, 0, 0, 0, 0, 0, 0, 11, 7, 24, 0)
s = 98: (0, 7, 0, 0, 0, 0, 0, 0, 15, 7, 17, 0)
s = 99: (0, 8, 0, 0, 0, 0, 0, 0, 19, 9, 16, 0)
s = 100: (0, 7, 0, 0, 0, 0, 0, 0, 20, 11, 26, 0)
s = 101: (0, 9, 0, 0, 0, 0, 0, 0, 16, 11, 19, 0)
s = 102: (0, 9, 0, 0, 0, 0, 0, 0, 13, 9, 16, 0)
s = 103: (0, 6, 0, 0, 0, 0, 0, 0, 18, 5, 27, 0)
s = 104: (0, 13, 0, 0, 0, 0, 0, 0, 17, 11, 19, 0)
s = 105: (0, 8, 0, 0, 0, 0, 0, 0, 24, 8, 16, 0)
s = 106: (0, 6, 0, 0, 0, 0, 0, 0, 15, 6, 19, 0)
s = 107: (0, 10, 0, 0, 0, 0, 0, 0, 12, 7, 34, 0)
s = 108: (0, 5, 0, 0, 0, 0, 0, 0, 19, 8, 27, 0)
s = 109: (0, 6, 0, 0, 0, 0, 0, 0, 13, 9, 28, 0)
s = 110: (0, 9, 0, 0, 0, 0, 0, 0, 12, 5, 18, 0)
s = 111: (0, 7, 0, 0, 0, 0, 0, 0, 24, 8, 16, 0)
s = 112: (0, 7, 0, 0, 0, 0, 0, 0, 15, 11, 29, 0)
s = 113: (0, 7, 0, 0, 0, 0, 0, 0, 15, 8, 17, 0)
s = 114: (0, 6, 0, 0, 0, 0, 0, 0, 15, 10, 23, 0)
s = 115: (0, 10, 0, 0, 0, 0, 0, 0, 12, 7, 19, 0)
s = 116: (0, 9, 0, 0, 0, 0, 0, 0, 18, 6, 16, 0)
s = 117: (0, 5, 0, 0, 0, 0, 0, 0, 13, 9, 28, 0)
s = 118: (0, 9, 0, 0, 0, 0, 0, 0, 10, 7, 33, 0)
s = 119: (0, 7, 0, 0, 0, 0, 0, 0, 13, 7, 18, 0)
s = 120: (0, 7, 0, 0, 0, 0, 0, 0, 13, 11, 21, 0)
s = 121: (0, 8, 0, 0, 0, 0, 0, 0, 15, 10, 31, 0)
s = 122: (0, 12, 0, 0, 0, 0, 0, 0, 23, 5, 12, 0)
s = 123: (0, 9, 0, 0, 0, 0, 0, 0, 16, 7, 24, 0)
s = 124: (0, 11, 0, 0, 0, 0, 0, 0, 18, 6, 26, 0)
s = 125: (0, 7, 0, 0, 0, 0, 0, 0, 13, 10, 25, 0)
s = 126: (0, 9, 0, 0, 0, 0, 0, 0, 16, 9, 18, 0)
s = 127: (0, 7, 0, 0, 0, 0, 0, 0, 12, 10, 22, 0)
s = 128: (0, 7, 0, 0, 0, 0, 0, 0, 20, 12, 31, 0)
s = 129: (0, 8, 0, 0, 0, 0, 0, 0, 14, 13, 25, 0)
s = 130: (0, 8, 0, 0, 0, 0, 0, 0, 18, 7, 19, 0)
s = 131: (0, 7, 0, 0, 0, 0, 0, 0, 13, 8, 17, 0)
s = 132: (0, 7, 0, 0, 0, 0, 0, 0, 10, 8, 24, 0)
s = 133: (0, 9, 0, 0, 0, 0, 0, 0, 22, 11, 29, 0)
s = 134: (0, 7, 0, 0, 0, 0, 0, 0, 15, 8, 18, 0)
s = 135: (0, 7, 0, 0, 0, 0, 0, 0, 15, 9, 12, 0)
s = 136: (0, 6, 0, 0, 0, 0, 0, 0, 14, 6, 12, 0)
s = 137: (0, 11, 0, 0, 0, 0, 0, 0, 21, 5, 24, 0)
s = 138: (0, 9, 0, 0, 0, 0, 0, 0, 9, 6, 25, 0)
s = 139: (0, 5, 0, 0, 0, 0, 0, 0, 18, 8, 19, 0)
s = 140: (0, 11, 0, 0, 0, 0, 0, 0, 11, 11, 13, 0)
s = 141: (0, 8, 0, 0, 0, 0, 0, 0, 10, 12, 22, 0)
s = 142: (0, 10, 0, 0, 0, 0, 0, 0, 15, 6, 17, 0)
s = 143: (0, 9, 0, 0, 0, 0, 0, 0, 17, 6, 31, 0)
s = 144: (0, 9, 0, 0, 0, 0, 0, 0, 20, 7, 26, 0)
s = 145: (0, 5, 0, 0, 0, 0, 0, 0, 22, 13, 22, 0)
s = 146: (0, 7, 0, 0, 0, 0, 0, 0, 18, 15, 16, 0)
s = 147: (0, 5, 0, 0, 0, 0, 0, 0, 9, 9, 15, 0)
s = 148: (0, 9, 0, 0, 0, 0, 0, 0, 14, 8, 29, 0)
s = 149: (0, 6, 0, 0, 0, 0, 0, 0, 11, 7, 17, 0)
s = 150: (0, 7, 0, 0, 0, 0, 0, 0, 16, 9, 19, 0)
s = 151: (0, 8, 0, 0, 0, 0, 0, 0, 13, 10, 17, 0)
s = 152: (0, 9, 0, 0, 0, 0, 0, 0, 16, 11, 23, 0)
s = 153: (0, 8, 0, 0, 0, 0, 0, 0, 17, 9, 21, 0)
s = 154: (0, 8, 0, 0, 0, 0, 0, 0, 15, 5, 13, 0)
s = 155: (0, 10, 0, 0, 0, 0, 0, 0, 13, 10, 13, 0)
s = 156: (0, 8, 0, 0, 0, 0, 0, 0, 21, 7, 23, 0)
s = 157: (0, 8, 0, 0, 0, 0, 0, 0, 11, 7, 14, 0)
s = 158: (0, 11, 0, 0, 0, 0, 0, 0, 12, 6, 13, 0)
s = 159: (0, 7, 0, 0, 0, 0, 0, 0, 12, 7, 20, 0)
s = 160: (0, 6, 0, 0, 0, 0, 0, 0, 12, 6, 20, 0)
s = 161: (0, 14, 0, 0, 0, 0, 0, 0, 15, 12, 13, 0)
s = 162: (0, 7, 0, 0, 0, 0, 0, 0, 16, 7, 21, 0)
s = 163: (0, 7, 0, 0, 0, 0, 0, 0, 11, 7, 23, 0)
s = 164: (0, 10, 0, 0, 0, 0, 0, 0, 21, 9, 22, 0)
s = 165: (0, 6, 0, 0, 0, 0, 0, 0, 20, 7, 19, 0)
s = 166: (0, 8, 0, 0, 0, 0, 0, 0, 12, 9, 20, 0)
s = 167: (0, 11, 0, 0, 0, 0, 0, 0, 13, 6, 16, 0)
s = 168: (0, 7, 0, 0, 0, 0, 0, 0, 16, 6, 24, 0)
s = 169: (0, 8, 0, 0, 0, 0, 0, 0, 14, 10, 18, 0)
s = 170: (0, 13, 0, 0, 0, 0, 0, 0, 25, 10, 23, 0)
s = 171: (0, 6, 0, 0, 0, 0, 0, 0, 11, 10, 18, 0)
s = 172: (0, 8, 0, 0, 0, 0, 0, 0, 24, 12, 19, 0)
s = 173: (0, 10, 0, 0, 0, 0, 0, 0, 26, 8, 28, 0)
s = 174: (0, 9, 0, 0, 0, 0, 0, 0, 14, 7, 30, 0)
s = 175: (0, 11, 0, 0, 0, 0, 0, 0, 17, 8, 26, 0)
s = 176: (0, 10, 0, 0, 0, 0, 0, 0, 9, 8, 14, 0)
s = 177: (0, 10, 0, 0, 0, 0, 0, 0, 20, 7, 16, 0)
s = 178: (0, 7, 0, 0, 0, 0, 0, 0, 20, 6, 22, 0)
s = 179: (0, 14, 0, 0, 0, 0, 0, 0, 21, 11, 24, 0)
s = 180: (0, 8, 0, 0, 0, 0, 0, 0, 13, 7, 18, 0)
s = 181: (0, 5, 0, 0, 0, 0, 0, 0, 26, 14, 11, 0)
s = 182: (0, 10, 0, 0, 0, 0, 0, 0, 15, 9, 16, 0)
s = 183: (0, 11, 0, 0, 0, 0, 0, 0, 15, 8, 19, 0)
s = 184: (0, 11, 0, 0, 0, 0, 0, 0, 20, 10, 30, 0)
s = 185: (0, 14, 0, 0, 0, 0, 0, 0, 19, 8, 15, 0)
s = 186: (0, 6, 0, 0, 0, 0, 0, 0, 13, 8, 14, 0)
s = 187: (0, 5, 0, 0, 0, 0, 0, 0, 13, 12, 18, 0)
s = 188: (0, 5, 0, 0, 0, 0, 0, 0, 12, 10, 16, 0)
s = 189: (0, 8, 0, 0, 0, 0, 0, 0, 22, 11, 18, 0)
s = 190: (0, 7, 0, 0, 0, 0, 0, 0, 15, 14, 21, 0)
s = 191: (0, 9, 0, 0, 0, 0, 0, 0, 16, 9, 25, 0)
s = 192: (0, 5, 0, 0, 0, 0, 0, 0, 23, 6, 30, 0)
s = 193: (0, 7, 0, 0, 0, 0, 0, 0, 17, 11, 19, 0)
s = 194: (0, 9, 0, 0, 0, 0, 0, 0, 12, 8, 19, 0)
s = 195: (0, 8, 0, 0, 0, 0, 0, 0, 14, 7, 15, 0)
s = 196: (0, 8, 0, 0, 0, 0, 0, 0, 21, 7, 24, 0)
s = 197: (0, 11, 0, 0, 0, 0, 0, 0, 15, 7, 20, 0)
s = 198: (0, 8, 0, 0, 0, 0, 0, 0, 10, 7, 28, 0)
s = 199: (0, 9, 0, 0, 0, 0, 0, 0, 22, 10, 22, 0)
s = 200: (0, 5, 0, 0, 0, 0, 0, 0, 18, 11, 17, 0)
************************************************************************
ES/LS-VALUES:
jobnr.   ES(i)    LS(i)
------------------------------------------------------------------------
  0        0        0
  1        0       65
  2        0       45
  3        0       65
  4        9       67
  5        9       55
  6       11       57
  7        2       67
  8       11       69
  9       11       69
 10       22       69
 11       25       73
************************************************************************
BIG-M-VALUES:
M1 = 44, M2 = 245
************************************************************************
